400
400 400
1 280 943
2 280 501
3 280 537
4 279 432
5 279 410
6 279 43
7 279 655
8 278 22
9 277 304
10 277 970
11 277 525
12 277 668
13 276 249
14 276 593
15 276 171
16 274 615
17 274 826
18 273 809
19 273 579
20 272 41
21 272 653
22 272 314
23 272 670
24 271 602
25 270 449
26 270 814
27 269 886
28 268 687
29 268 86
30 268 691
31 267 519
32 267 114
33 267 478
34 266 324
35 264 416
36 263 512
37 263 246
38 262 374
39 262 205
40 261 488
41 259 187
42 258 643
43 258 168
44 258 481
45 257 983
46 257 424
47 256 85
48 256 304
49 256 612
50 254 322
51 254 848
52 254 710
53 254 283
54 254 897
55 254 155
56 254 60
57 254 651
58 254 152
59 253 346
60 253 632
61 253 435
62 253 219
63 252 761
64 252 621
65 252 774
66 252 23
67 252 385
68 251 524
69 251 793
70 250 252
71 250 625
72 249 749
73 249 588
74 248 382
75 248 843
76 247 571
77 247 961
78 246 964
79 246 93
80 245 36
81 244 847
82 244 236
83 244 752
84 243 252
85 243 100
86 243 510
87 243 700
88 242 63
89 242 972
90 242 226
91 242 1000
92 241 574
93 241 330
94 240 955
95 240 502
96 240 545
97 238 654
98 238 328
99 237 427
100 237 774
101 237 435
102 236 264
103 235 531
104 235 38
105 235 73
106 235 852
107 234 503
108 233 260
109 232 486
110 232 971
111 232 637
112 232 946
113 231 170
114 231 726
115 230 873
116 229 251
117 228 656
118 227 290
119 227 148
120 226 991
121 226 322
122 226 337
123 226 449
124 225 470
125 225 505
126 225 384
127 225 924
128 224 450
129 224 581
130 224 732
131 224 324
132 223 227
133 221 821
134 221 196
135 221 877
136 221 454
137 220 499
138 220 301
139 220 696
140 219 86
141 219 612
142 219 361
143 219 1
144 219 89
145 218 958
146 218 614
147 217 168
148 216 564
149 216 113
150 215 255
151 215 232
152 214 405
153 213 393
154 212 683
155 211 334
156 211 877
157 211 476
158 211 921
159 211 800
160 211 795
161 210 986
162 209 447
163 209 499
164 209 28
165 208 798
166 208 786
167 208 195
168 208 988
169 207 543
170 207 570
171 207 97
172 207 653
173 206 643
174 206 561
175 205 699
176 203 108
177 203 833
178 202 985
179 202 951
180 200 350
181 199 706
182 199 791
183 198 423
184 198 16
185 197 982
186 197 621
187 196 883
188 195 70
189 195 837
190 194 364
191 194 197
192 193 59
193 192 495
194 192 846
195 192 634
196 192 963
197 191 629
198 191 957
199 191 922
200 191 223
201 190 713
202 189 258
203 189 153
204 188 105
205 188 798
206 188 14
207 188 662
208 187 295
209 187 997
210 186 46
211 186 769
212 186 910
213 186 745
214 186 288
215 185 853
216 185 903
217 185 587
218 185 828
219 183 802
220 183 488
221 182 763
222 182 395
223 181 733
224 179 807
225 179 310
226 179 326
227 178 677
228 177 916
229 177 109
230 176 503
231 175 118
232 175 4
233 174 560
234 174 137
235 173 73
236 173 54
237 172 618
238 172 520
239 170 853
240 170 379
241 168 468
242 168 896
243 168 652
244 167 37
245 165 592
246 164 664
247 164 108
248 162 105
249 162 910
250 162 21
251 162 307
252 162 934
253 161 253
254 161 70
255 161 240
256 161 221
257 160 350
258 159 824
259 159 478
260 158 849
261 158 615
262 158 139
263 158 52
264 157 1000
265 155 726
266 155 660
267 155 690
268 154 305
269 154 168
270 154 979
271 154 941
272 153 935
273 153 212
274 152 770
275 152 416
276 152 683
277 151 327
278 151 789
279 151 745
280 150 93
281 150 699
282 150 937
283 149 54
284 149 517
285 148 408
286 147 449
287 147 218
288 147 512
289 146 677
290 146 903
291 145 98
292 144 610
293 143 70
294 143 727
295 143 120
296 143 602
297 143 422
298 142 861
299 142 140
300 141 616
301 141 683
302 141 585
303 140 812
304 140 56
305 139 703
306 139 238
307 137 586
308 136 232
309 136 985
310 136 328
311 134 471
312 134 751
313 133 523
314 132 668
315 131 685
316 131 236
317 131 177
318 131 640
319 129 801
320 129 501
321 129 801
322 128 676
323 128 746
324 128 371
325 127 227
326 126 357
327 125 292
328 125 406
329 124 212
330 124 331
331 123 501
332 122 294
333 122 171
334 121 954
335 120 736
336 120 622
337 118 477
338 118 300
339 118 832
340 117 122
341 117 190
342 116 949
343 116 631
344 116 337
345 115 272
346 115 264
347 115 65
348 114 549
349 114 527
350 113 254
351 111 406
352 111 717
353 109 853
354 109 899
355 109 286
356 109 567
357 109 246
358 109 785
359 108 434
360 108 893
361 108 27
362 107 322
363 107 882
364 106 234
365 105 999
366 105 760
367 104 82
368 104 367
369 104 598
370 103 184
371 102 585
372 102 302
373 102 633
374 100 718
375 98 938
376 98 656
377 98 207
378 98 945
379 98 944
380 97 131
381 97 495
382 95 861
383 95 903
384 94 781
385 92 961
386 92 885
387 92 8
388 91 577
389 91 507
390 90 717
391 90 781
392 89 482
393 87 220
394 86 436
395 85 45
396 85 775
397 82 812
398 82 47
399 82 237
400 80 954
